QPLIB_3816
LGQ
maximize
187 # number of variables
387 # number of constraints
0.0 # default value for linear coefficients in objective
140 # number of non-default linear coefficients in objective
1 -0.33
2 -0.33
3 -0.33
4 -0.37
5 -0.37
6 -0.37
7 -0.76
8 -0.76
9 -0.76
10 -1.18
11 -1.18
12 -1.18
13 -1.06
14 -1.06
15 -1.06
16 -0.58
17 -0.58
18 -0.58
19 5.48
20 5.48
21 5.48
22 -0.23
23 -0.23
24 -0.23
25 -0.58
26 -0.58
27 -0.58
28 -0.29
29 -0.29
30 -0.29
31 7.83
32 7.83
33 4.82
34 4.82
35 -0.34
36 -0.34
37 -0.34
38 -0.11
39 -0.11
40 -0.11
41 7.22
42 7.22
43 5.54
44 5.54
45 -0.02
46 -0.02
47 -0.02
48 -0.31
49 -0.31
50 -0.31
51 -0.18
52 -0.18
53 -0.18
54 8.01
55 8.01
56 5.33
57 5.33
58 -0.7
59 -0.7
60 -0.7
61 -0.03
62 -0.03
63 -0.03
64 -0.32
65 -0.32
66 -0.32
67 7.45
68 7.45
69 4.98
70 4.98
79 -0.18
80 -0.18
81 -0.18
82 -1.0
83 -1.0
84 -1.0
85 -0.03
86 -0.03
87 -0.03
88 -0.46
89 -0.46
90 -0.46
91 -0.16
92 -0.16
93 -0.16
94 -0.64
95 -0.64
96 -0.64
97 -0.48
98 -0.48
99 -0.48
100 -0.59
101 -0.59
102 -0.59
103 -0.38
104 -0.38
105 -0.38
106 -0.25
107 -0.25
108 -0.25
109 -0.62
110 -0.62
111 -0.82
112 -0.82
113 -0.73
114 -0.73
115 -0.73
116 -0.58
117 -0.58
118 -0.58
119 -0.91
120 -0.91
121 -0.82
122 -0.82
123 -0.59
124 -0.59
125 -0.59
126 -0.43
127 -0.43
128 -0.43
129 -0.16
130 -0.16
131 -0.16
132 -0.42
133 -0.42
134 -0.6
135 -0.6
136 -0.7
137 -0.7
138 -0.7
139 -0.64
140 -0.64
141 -0.64
142 -0.07
143 -0.07
144 -0.07
145 -0.53
146 -0.53
147 -0.41
148 -0.41
0.0 # objective constant
160 # number of quadratic terms in all constraints
364 1 1 2.0
365 1 1 2.0
366 1 1 2.0
367 1 1 2.0
368 1 1 2.0
369 3 1 2.0
370 3 1 2.0
371 3 1 2.0
372 3 1 2.0
372 3 1 2.0
372 3 1 2.0
372 3 1 2.0
372 3 1 2.0
372 3 1 -2.0
372 3 1 -2.0
372 3 1 -2.0
372 3 1 -2.0
372 3 1 2.0
373 3 1 2.0
373 3 1 2.0
373 3 1 2.0
373 3 1 2.0
373 3 1 2.0
373 3 1 -2.0
373 3 1 -2.0
373 3 1 -2.0
373 3 1 2.0
373 3 1 -2.0
374 3 1 -2.0
374 3 1 2.0
374 3 1 2.0
374 3 1 2.0
374 3 1 2.0
374 3 1 -2.0
374 3 1 -2.0
374 3 1 -2.0
374 3 1 2.0
375 3 1 -2.0
375 3 1 2.0
375 3 1 2.0
375 3 1 2.0
375 3 1 2.0
375 3 1 -2.0
375 3 1 -2.0
375 3 1 2.0
375 3 1 -2.0
376 3 1 -2.0
376 3 1 2.0
376 3 1 2.0
376 3 1 2.0
376 3 1 2.0
376 3 1 2.0
376 3 1 -2.0
376 3 1 -2.0
376 3 1 2.0
377 3 1 -2.0
377 3 1 2.0
377 3 1 2.0
377 3 1 2.0
377 3 1 2.0
377 3 1 2.0
377 3 1 -2.0
377 3 1 2.0
377 3 1 -2.0
378 3 1 -2.0
378 3 1 -2.0
378 3 1 -2.0
378 3 1 2.0
378 3 1 2.0
378 3 1 2.0
378 3 1 2.0
378 3 1 2.0
378 3 1 -2.0
378 3 1 2.0
379 3 1 -2.0
379 3 1 -2.0
379 3 1 -2.0
379 3 1 2.0
379 3 1 2.0
379 3 1 2.0
379 3 1 2.0
379 3 1 2.0
379 3 1 2.0
379 3 1 -2.0
380 3 1 2.0
380 3 1 2.0
380 3 1 2.0
380 3 1 2.0
380 3 1 2.0
380 3 1 -2.0
380 3 1 -2.0
380 3 1 -2.0
380 3 1 -2.0
380 3 1 2.0
381 3 3 2.0
381 3 3 2.0
381 3 3 2.0
381 3 3 2.0
381 3 3 2.0
381 3 3 -2.0
381 3 3 -2.0
381 3 3 -2.0
381 3 3 2.0
381 3 3 -2.0
382 3 3 -2.0
382 3 3 2.0
382 3 3 2.0
382 3 3 2.0
382 3 3 2.0
382 3 3 -2.0
382 3 3 -2.0
382 3 3 -2.0
382 3 3 2.0
383 3 3 -2.0
383 3 3 2.0
383 3 3 2.0
383 3 3 2.0
383 3 3 2.0
383 3 3 -2.0
383 3 3 -2.0
383 3 3 2.0
383 3 3 -2.0
384 3 3 -2.0
384 3 3 2.0
384 3 3 2.0
384 3 3 2.0
384 3 3 2.0
384 3 3 2.0
384 3 3 -2.0
384 3 3 -2.0
384 3 3 2.0
385 3 3 -2.0
385 3 3 2.0
385 3 3 2.0
385 3 3 2.0
385 3 3 2.0
385 3 3 2.0
385 3 3 -2.0
385 3 3 2.0
385 3 3 -2.0
386 3 3 -2.0
386 3 3 -2.0
386 3 3 -2.0
386 3 3 2.0
386 3 3 2.0
386 3 3 2.0
386 3 3 2.0
386 3 3 2.0
386 3 3 -2.0
386 3 3 2.0
387 3 3 -2.0
387 3 3 -2.0
387 3 3 -2.0
387 3 3 2.0
387 3 3 2.0
387 3 3 2.0
387 3 3 2.0
387 3 3 2.0
387 3 3 2.0
387 3 3 -2.0
934 # number of linear terms in all constraints
1 1 1.0
1 4 1.0
1 7 1.0
1 149 1.0
2 10 1.0
2 13 1.0
2 16 1.0
2 19 1.0
2 150 1.0
3 10 -1.0
3 22 1.0
3 25 1.0
3 28 1.0
3 35 -1.0
3 45 -1.0
3 58 -1.0
3 151 1.0
4 1 -1.0
4 13 -1.0
4 22 -1.0
4 35 1.0
4 38 1.0
4 48 -1.0
4 61 -1.0
4 152 1.0
5 4 -1.0
5 25 -1.0
5 45 1.0
5 48 1.0
5 51 1.0
5 64 -1.0
5 153 1.0
6 7 -1.0
6 16 -1.0
6 28 -1.0
6 38 -1.0
6 51 -1.0
6 58 1.0
6 61 1.0
6 64 1.0
6 154 1.0
7 19 -1.0
7 155 1.0
8 2 1.0
8 5 1.0
8 8 1.0
8 149 -1.0
8 156 1.0
9 3 1.0
9 6 1.0
9 9 1.0
9 156 -1.0
9 157 1.0
10 11 1.0
10 14 1.0
10 17 1.0
10 20 1.0
10 150 -1.0
10 158 1.0
11 12 1.0
11 15 1.0
11 18 1.0
11 21 1.0
11 158 -1.0
11 159 1.0
12 11 -1.0
12 23 1.0
12 26 1.0
12 29 1.0
12 31 1.0
12 33 1.0
12 36 -1.0
12 46 -1.0
12 59 -1.0
12 151 -1.0
12 160 1.0
13 12 -1.0
13 24 1.0
13 27 1.0
13 30 1.0
13 32 1.0
13 34 1.0
13 37 -1.0
13 47 -1.0
13 60 -1.0
13 160 -1.0
13 161 1.0
14 2 -1.0
14 14 -1.0
14 23 -1.0
14 36 1.0
14 39 1.0
14 41 1.0
14 43 1.0
14 49 -1.0
14 62 -1.0
14 152 -1.0
14 162 1.0
15 3 -1.0
15 15 -1.0
15 24 -1.0
15 37 1.0
15 40 1.0
15 42 1.0
15 44 1.0
15 50 -1.0
15 63 -1.0
15 162 -1.0
15 163 1.0
16 5 -1.0
16 26 -1.0
16 46 1.0
16 49 1.0
16 52 1.0
16 54 1.0
16 56 1.0
16 65 -1.0
16 153 -1.0
16 164 1.0
17 6 -1.0
17 27 -1.0
17 47 1.0
17 50 1.0
17 53 1.0
17 55 1.0
17 57 1.0
17 66 -1.0
17 164 -1.0
17 165 1.0
18 8 -1.0
18 17 -1.0
18 29 -1.0
18 39 -1.0
18 52 -1.0
18 59 1.0
18 62 1.0
18 65 1.0
18 67 1.0
18 69 1.0
18 154 -1.0
18 166 1.0
19 9 -1.0
19 18 -1.0
19 30 -1.0
19 40 -1.0
19 53 -1.0
19 60 1.0
19 63 1.0
19 66 1.0
19 68 1.0
19 70 1.0
19 166 -1.0
19 167 1.0
20 31 -1.0
20 41 -1.0
20 54 -1.0
20 67 -1.0
20 168 1.0
21 32 -1.0
21 42 -1.0
21 55 -1.0
21 68 -1.0
21 168 -1.0
21 169 1.0
22 20 -1.0
22 33 -1.0
22 43 -1.0
22 56 -1.0
22 69 -1.0
22 155 -1.0
22 170 1.0
23 21 -1.0
23 34 -1.0
23 44 -1.0
23 57 -1.0
23 70 -1.0
23 170 -1.0
23 171 1.0
24 1 1.0
24 79 -1.0
25 2 1.0
25 80 -1.0
26 3 1.0
26 81 -1.0
27 4 1.0
27 82 -1.0
28 5 1.0
28 83 -1.0
29 6 1.0
29 84 -1.0
30 7 1.0
30 85 -1.0
31 8 1.0
31 86 -1.0
32 9 1.0
32 87 -1.0
33 10 1.0
33 88 -1.0
34 11 1.0
34 89 -1.0
35 12 1.0
35 90 -1.0
36 13 1.0
36 91 -1.0
37 14 1.0
37 92 -1.0
38 15 1.0
38 93 -1.0
39 16 1.0
39 94 -1.0
40 17 1.0
40 95 -1.0
41 18 1.0
41 96 -1.0
42 19 1.0
42 97 -1.0
43 20 1.0
43 98 -1.0
44 21 1.0
44 99 -1.0
45 22 1.0
45 100 -1.0
46 23 1.0
46 101 -1.0
47 24 1.0
47 102 -1.0
48 25 1.0
48 103 -1.0
49 26 1.0
49 104 -1.0
50 27 1.0
50 105 -1.0
51 28 1.0
51 106 -1.0
52 29 1.0
52 107 -1.0
53 30 1.0
53 108 -1.0
54 31 1.0
54 109 -1.0
55 32 1.0
55 110 -1.0
56 33 1.0
56 111 -1.0
57 34 1.0
57 112 -1.0
58 35 1.0
58 113 -1.0
59 36 1.0
59 114 -1.0
60 37 1.0
60 115 -1.0
61 38 1.0
61 116 -1.0
62 39 1.0
62 117 -1.0
63 40 1.0
63 118 -1.0
64 41 1.0
64 119 -1.0
65 42 1.0
65 120 -1.0
66 43 1.0
66 121 -1.0
67 44 1.0
67 122 -1.0
68 45 1.0
68 123 -1.0
69 46 1.0
69 124 -1.0
70 47 1.0
70 125 -1.0
71 48 1.0
71 126 -1.0
72 49 1.0
72 127 -1.0
73 50 1.0
73 128 -1.0
74 51 1.0
74 129 -1.0
75 52 1.0
75 130 -1.0
76 53 1.0
76 131 -1.0
77 54 1.0
77 132 -1.0
78 55 1.0
78 133 -1.0
79 56 1.0
79 134 -1.0
80 57 1.0
80 135 -1.0
81 58 1.0
81 136 -1.0
82 59 1.0
82 137 -1.0
83 60 1.0
83 138 -1.0
84 61 1.0
84 139 -1.0
85 62 1.0
85 140 -1.0
86 63 1.0
86 141 -1.0
87 64 1.0
87 142 -1.0
88 65 1.0
88 143 -1.0
89 66 1.0
89 144 -1.0
90 67 1.0
90 145 -1.0
91 68 1.0
91 146 -1.0
92 69 1.0
92 147 -1.0
93 70 1.0
93 148 -1.0
94 109 1.0
94 172 -1.0
95 110 1.0
95 173 -1.0
96 111 1.0
96 172 -1.0
97 112 1.0
97 173 -1.0
98 119 1.0
98 174 -1.0
99 120 1.0
99 175 -1.0
100 121 1.0
100 174 -1.0
101 122 1.0
101 175 -1.0
102 132 1.0
102 176 -1.0
103 133 1.0
103 177 -1.0
104 134 1.0
104 176 -1.0
105 135 1.0
105 177 -1.0
106 145 1.0
106 178 -1.0
107 146 1.0
107 179 -1.0
108 147 1.0
108 178 -1.0
109 148 1.0
109 179 -1.0
110 109 1.0
110 180 -1.0
111 110 1.0
111 181 -1.0
112 111 1.0
112 180 -1.0
113 112 1.0
113 181 -1.0
114 119 1.0
114 182 -1.0
115 120 1.0
115 183 -1.0
116 121 1.0
116 182 -1.0
117 122 1.0
117 183 -1.0
118 132 1.0
118 184 -1.0
119 133 1.0
119 185 -1.0
120 134 1.0
120 184 -1.0
121 135 1.0
121 185 -1.0
122 145 1.0
122 186 -1.0
123 146 1.0
123 187 -1.0
124 147 1.0
124 186 -1.0
125 148 1.0
125 187 -1.0
126 109 -1.0
126 172 -1.0
127 110 -1.0
127 173 -1.0
128 111 -1.0
128 172 -1.0
129 112 -1.0
129 173 -1.0
130 119 -1.0
130 174 -1.0
131 120 -1.0
131 175 -1.0
132 121 -1.0
132 174 -1.0
133 122 -1.0
133 175 -1.0
134 132 -1.0
134 176 -1.0
135 133 -1.0
135 177 -1.0
136 134 -1.0
136 176 -1.0
137 135 -1.0
137 177 -1.0
138 145 -1.0
138 178 -1.0
139 146 -1.0
139 179 -1.0
140 147 -1.0
140 178 -1.0
141 148 -1.0
141 179 -1.0
142 109 -1.0
142 180 -1.0
143 110 -1.0
143 181 -1.0
144 111 -1.0
144 180 -1.0
145 112 -1.0
145 181 -1.0
146 119 -1.0
146 182 -1.0
147 120 -1.0
147 183 -1.0
148 121 -1.0
148 182 -1.0
149 122 -1.0
149 183 -1.0
150 132 -1.0
150 184 -1.0
151 133 -1.0
151 185 -1.0
152 134 -1.0
152 184 -1.0
153 135 -1.0
153 185 -1.0
154 145 -1.0
154 186 -1.0
155 146 -1.0
155 187 -1.0
156 147 -1.0
156 186 -1.0
157 148 -1.0
157 187 -1.0
158 88 1.0
158 100 1.0
159 89 1.0
159 101 1.0
160 90 1.0
160 102 1.0
161 88 1.0
161 103 1.0
162 89 1.0
162 104 1.0
163 90 1.0
163 105 1.0
164 88 1.0
164 106 1.0
165 89 1.0
165 107 1.0
166 90 1.0
166 108 1.0
167 89 1.0
167 109 1.0
168 90 1.0
168 110 1.0
169 89 1.0
169 111 1.0
170 90 1.0
170 112 1.0
171 100 1.0
171 113 1.0
172 101 1.0
172 114 1.0
173 102 1.0
173 115 1.0
174 103 1.0
174 113 1.0
175 104 1.0
175 114 1.0
176 105 1.0
176 115 1.0
177 106 1.0
177 113 1.0
178 107 1.0
178 114 1.0
179 108 1.0
179 115 1.0
180 109 1.0
180 114 1.0
181 110 1.0
181 115 1.0
182 111 1.0
182 114 1.0
183 112 1.0
183 115 1.0
184 100 1.0
184 123 1.0
185 101 1.0
185 124 1.0
186 102 1.0
186 125 1.0
187 103 1.0
187 123 1.0
188 104 1.0
188 124 1.0
189 105 1.0
189 125 1.0
190 106 1.0
190 123 1.0
191 107 1.0
191 124 1.0
192 108 1.0
192 125 1.0
193 109 1.0
193 124 1.0
194 110 1.0
194 125 1.0
195 111 1.0
195 124 1.0
196 112 1.0
196 125 1.0
197 100 1.0
197 136 1.0
198 101 1.0
198 137 1.0
199 102 1.0
199 138 1.0
200 103 1.0
200 136 1.0
201 104 1.0
201 137 1.0
202 105 1.0
202 138 1.0
203 106 1.0
203 136 1.0
204 107 1.0
204 137 1.0
205 108 1.0
205 138 1.0
206 109 1.0
206 137 1.0
207 110 1.0
207 138 1.0
208 111 1.0
208 137 1.0
209 112 1.0
209 138 1.0
210 79 1.0
210 113 1.0
211 80 1.0
211 114 1.0
212 81 1.0
212 115 1.0
213 79 1.0
213 116 1.0
214 80 1.0
214 117 1.0
215 81 1.0
215 118 1.0
216 80 1.0
216 119 1.0
217 81 1.0
217 120 1.0
218 80 1.0
218 121 1.0
219 81 1.0
219 122 1.0
220 91 1.0
220 113 1.0
221 92 1.0
221 114 1.0
222 93 1.0
222 115 1.0
223 91 1.0
223 116 1.0
224 92 1.0
224 117 1.0
225 93 1.0
225 118 1.0
226 92 1.0
226 119 1.0
227 93 1.0
227 120 1.0
228 92 1.0
228 121 1.0
229 93 1.0
229 122 1.0
230 100 1.0
230 113 1.0
231 101 1.0
231 114 1.0
232 102 1.0
232 115 1.0
233 100 1.0
233 116 1.0
234 101 1.0
234 117 1.0
235 102 1.0
235 118 1.0
236 101 1.0
236 119 1.0
237 102 1.0
237 120 1.0
238 101 1.0
238 121 1.0
239 102 1.0
239 122 1.0
240 113 1.0
240 126 1.0
241 114 1.0
241 127 1.0
242 115 1.0
242 128 1.0
243 116 1.0
243 126 1.0
244 117 1.0
244 127 1.0
245 118 1.0
245 128 1.0
246 119 1.0
246 127 1.0
247 120 1.0
247 128 1.0
248 121 1.0
248 127 1.0
249 122 1.0
249 128 1.0
250 113 1.0
250 139 1.0
251 114 1.0
251 140 1.0
252 115 1.0
252 141 1.0
253 116 1.0
253 139 1.0
254 117 1.0
254 140 1.0
255 118 1.0
255 141 1.0
256 119 1.0
256 140 1.0
257 120 1.0
257 141 1.0
258 121 1.0
258 140 1.0
259 122 1.0
259 141 1.0
260 82 1.0
260 123 1.0
261 83 1.0
261 124 1.0
262 84 1.0
262 125 1.0
263 82 1.0
263 126 1.0
264 83 1.0
264 127 1.0
265 84 1.0
265 128 1.0
266 82 1.0
266 129 1.0
267 83 1.0
267 130 1.0
268 84 1.0
268 131 1.0
269 83 1.0
269 132 1.0
270 84 1.0
270 133 1.0
271 83 1.0
271 134 1.0
272 84 1.0
272 135 1.0
273 103 1.0
273 123 1.0
274 104 1.0
274 124 1.0
275 105 1.0
275 125 1.0
276 103 1.0
276 126 1.0
277 104 1.0
277 127 1.0
278 105 1.0
278 128 1.0
279 103 1.0
279 129 1.0
280 104 1.0
280 130 1.0
281 105 1.0
281 131 1.0
282 104 1.0
282 132 1.0
283 105 1.0
283 133 1.0
284 104 1.0
284 134 1.0
285 105 1.0
285 135 1.0
286 123 1.0
286 142 1.0
287 124 1.0
287 143 1.0
288 125 1.0
288 144 1.0
289 126 1.0
289 142 1.0
290 127 1.0
290 143 1.0
291 128 1.0
291 144 1.0
292 129 1.0
292 142 1.0
293 130 1.0
293 143 1.0
294 131 1.0
294 144 1.0
295 132 1.0
295 143 1.0
296 133 1.0
296 144 1.0
297 134 1.0
297 143 1.0
298 135 1.0
298 144 1.0
299 85 1.0
299 136 1.0
300 86 1.0
300 137 1.0
301 87 1.0
301 138 1.0
302 85 1.0
302 139 1.0
303 86 1.0
303 140 1.0
304 87 1.0
304 141 1.0
305 85 1.0
305 142 1.0
306 86 1.0
306 143 1.0
307 87 1.0
307 144 1.0
308 86 1.0
308 145 1.0
309 87 1.0
309 146 1.0
310 86 1.0
310 147 1.0
311 87 1.0
311 148 1.0
312 94 1.0
312 136 1.0
313 95 1.0
313 137 1.0
314 96 1.0
314 138 1.0
315 94 1.0
315 139 1.0
316 95 1.0
316 140 1.0
317 96 1.0
317 141 1.0
318 94 1.0
318 142 1.0
319 95 1.0
319 143 1.0
320 96 1.0
320 144 1.0
321 95 1.0
321 145 1.0
322 96 1.0
322 146 1.0
323 95 1.0
323 147 1.0
324 96 1.0
324 148 1.0
325 106 1.0
325 136 1.0
326 107 1.0
326 137 1.0
327 108 1.0
327 138 1.0
328 106 1.0
328 139 1.0
329 107 1.0
329 140 1.0
330 108 1.0
330 141 1.0
331 106 1.0
331 142 1.0
332 107 1.0
332 143 1.0
333 108 1.0
333 144 1.0
334 107 1.0
334 145 1.0
335 108 1.0
335 146 1.0
336 107 1.0
336 147 1.0
337 108 1.0
337 148 1.0
338 116 1.0
338 136 1.0
339 117 1.0
339 137 1.0
340 118 1.0
340 138 1.0
341 116 1.0
341 139 1.0
342 117 1.0
342 140 1.0
343 118 1.0
343 141 1.0
344 116 1.0
344 142 1.0
345 117 1.0
345 143 1.0
346 118 1.0
346 144 1.0
347 117 1.0
347 145 1.0
348 118 1.0
348 146 1.0
349 117 1.0
349 147 1.0
350 118 1.0
350 148 1.0
351 129 1.0
351 136 1.0
352 130 1.0
352 137 1.0
353 131 1.0
353 138 1.0
354 129 1.0
354 139 1.0
355 130 1.0
355 140 1.0
356 131 1.0
356 141 1.0
357 129 1.0
357 142 1.0
358 130 1.0
358 143 1.0
359 131 1.0
359 144 1.0
360 130 1.0
360 145 1.0
361 131 1.0
361 146 1.0
362 130 1.0
362 147 1.0
363 131 1.0
363 148 1.0
364 10 -0.7
364 22 0.1
364 25 0.1
364 28 0.1
364 45 -0.5
364 58 -0.8
365 1 -0.7
365 13 -0.7
365 22 -0.1
365 48 -0.5
365 61 -0.8
366 4 -0.7
366 25 -0.1
366 45 0.5
366 48 0.5
366 51 0.5
366 64 -0.8
367 7 -0.7
367 16 -0.7
367 28 -0.1
367 51 -0.5
367 58 0.8
367 61 0.8
367 64 0.8
368 10 -0.5
368 22 0.7
368 25 0.7
368 28 0.7
368 35 -0.1
368 45 -0.1
368 58 -0.8
369 1 -0.1
369 13 -0.5
369 22 -0.7
369 35 0.1
369 38 0.1
369 48 -0.1
369 61 -0.8
370 4 -0.1
370 25 -0.7
370 45 0.1
370 48 0.1
370 51 0.1
370 64 -0.8
371 7 -0.1
371 16 -0.5
371 28 -0.7
371 38 -0.1
371 51 -0.1
371 58 0.8
371 61 0.8
371 64 0.8
372 11 -0.7
373 12 -0.7
374 2 -0.7
374 14 -0.7
375 3 -0.7
375 15 -0.7
376 5 -0.7
377 6 -0.7
378 8 -0.7
378 17 -0.7
379 9 -0.7
379 18 -0.7
380 11 -0.5
381 12 -0.5
382 2 -0.1
382 14 -0.5
383 3 -0.1
383 15 -0.5
384 5 -0.1
385 6 -0.1
386 8 -0.1
386 17 -0.5
387 9 -0.1
387 18 -0.5
1.79769313486232E+308 # value for infinity
-1.79769313486232E+308 # default left-hand-side value
79 # number of non-default left-hand-sides
1 1.1
2 2.1
3 1.0
4 1.0
5 1.8
6 1.2
7 1.57
8 0.8
9 0.4
10 0.5
11 0.8
12 0.0
13 0.0
14 0.0
15 0.0
16 0.0
17 0.0
18 0.0
19 0.0
20 0.95
21 -0.83
22 -0.39
23 -0.8
126 -2.0
127 -2.0
128 -1.9
129 -1.9
130 -2.0
131 -2.0
132 -1.9
133 -1.9
134 -2.0
135 -2.0
136 -1.9
137 -1.9
138 -2.0
139 -2.0
140 -1.9
141 -1.9
142 -1.5
143 -1.5
144 -1.6
145 -1.6
146 -1.5
147 -1.5
148 -1.6
149 -1.6
150 -1.5
151 -1.5
152 -1.6
153 -1.6
154 -1.5
155 -1.5
156 -1.6
157 -1.6
364 0.1
365 0.0
366 0.9
367 0.96
368 0.7
369 0.1
370 0.18
371 0.96
372 0.0
373 0.0
374 0.0
375 0.0
376 0.0
377 0.0
378 0.0
379 0.0
380 0.0
381 0.0
382 0.0
383 0.0
384 0.0
385 0.0
386 0.0
387 0.0
1.0 # default right-hand-side value
171 # number of non-default right-hand-sides
1 1.1
2 2.1
5 1.8
6 1.2
7 1.57
8 0.8
9 0.4
10 0.5
11 0.8
12 0.0
13 0.0
14 0.0
15 0.0
16 0.0
17 0.0
18 0.0
19 0.0
20 0.95
21 -0.83
22 -0.39
23 -0.8
24 0.0
25 0.0
26 0.0
27 0.0
28 0.0
29 0.0
30 0.0
31 0.0
32 0.0
33 0.0
34 0.0
35 0.0
36 0.0
37 0.0
38 0.0
39 0.0
40 0.0
41 0.0
42 0.0
43 0.0
44 0.0
45 0.0
46 0.0
47 0.0
48 0.0
49 0.0
50 0.0
51 0.0
52 0.0
53 0.0
54 0.0
55 0.0
56 0.0
57 0.0
58 0.0
59 0.0
60 0.0
61 0.0
62 0.0
63 0.0
64 0.0
65 0.0
66 0.0
67 0.0
68 0.0
69 0.0
70 0.0
71 0.0
72 0.0
73 0.0
74 0.0
75 0.0
76 0.0
77 0.0
78 0.0
79 0.0
80 0.0
81 0.0
82 0.0
83 0.0
84 0.0
85 0.0
86 0.0
87 0.0
88 0.0
89 0.0
90 0.0
91 0.0
92 0.0
93 0.0
94 0.1
95 0.1
96 0.5
97 0.5
98 0.1
99 0.1
100 0.5
101 0.5
102 0.1
103 0.1
104 0.5
105 0.5
106 0.1
107 0.1
108 0.5
109 0.5
112 0.8
113 0.8
116 0.8
117 0.8
120 0.8
121 0.8
124 0.8
125 0.8
126 1.79769313486232E+308
127 1.79769313486232E+308
128 1.79769313486232E+308
129 1.79769313486232E+308
130 1.79769313486232E+308
131 1.79769313486232E+308
132 1.79769313486232E+308
133 1.79769313486232E+308
134 1.79769313486232E+308
135 1.79769313486232E+308
136 1.79769313486232E+308
137 1.79769313486232E+308
138 1.79769313486232E+308
139 1.79769313486232E+308
140 1.79769313486232E+308
141 1.79769313486232E+308
142 1.79769313486232E+308
143 1.79769313486232E+308
144 1.79769313486232E+308
145 1.79769313486232E+308
146 1.79769313486232E+308
147 1.79769313486232E+308
148 1.79769313486232E+308
149 1.79769313486232E+308
150 1.79769313486232E+308
151 1.79769313486232E+308
152 1.79769313486232E+308
153 1.79769313486232E+308
154 1.79769313486232E+308
155 1.79769313486232E+308
156 1.79769313486232E+308
157 1.79769313486232E+308
364 0.1
365 0.0
366 0.9
367 0.96
368 0.7
369 0.1
370 0.18
371 0.96
372 0.0
373 0.0
374 0.0
375 0.0
376 0.0
377 0.0
378 0.0
379 0.0
380 0.0
381 0.0
382 0.0
383 0.0
384 0.0
385 0.0
386 0.0
387 0.0
0.0 # default variable lower bound value
0 # number of non-default variable lower bounds
1.0 # default variable upper bound value
23 # number of non-default variable upper bounds
149 2.0
150 2.0
151 2.0
152 2.0
153 2.0
154 2.0
155 2.0
156 2.0
157 2.0
158 2.0
159 2.0
160 2.0
161 2.0
162 2.0
163 2.0
164 2.0
165 2.0
166 2.0
167 2.0
168 2.0
169 2.0
170 2.0
171 2.0
0 # default variable type
70 # number of non-default variable types
79 1
80 1
81 1
82 1
83 1
84 1
85 1
86 1
87 1
88 1
89 1
90 1
91 1
92 1
93 1
94 1
95 1
96 1
97 1
98 1
99 1
100 1
101 1
102 1
103 1
104 1
105 1
106 1
107 1
108 1
109 1
110 1
111 1
112 1
113 1
114 1
115 1
116 1
117 1
118 1
119 1
120 1
121 1
122 1
123 1
124 1
125 1
126 1
127 1
128 1
129 1
130 1
131 1
132 1
133 1
134 1
135 1
136 1
137 1
138 1
139 1
140 1
141 1
142 1
143 1
144 1
145 1
146 1
147 1
148 1
0.0 # default variable primal value in starting point
0 # number of non-default variable primal values in starting point
0.0 # default constraint dual value in starting point
0 # number of non-default constraint dual values in starting point
0.0 # default variable bound dual value in starting point
0 # number of non-default variable bound dual values in starting point
0 # number of non-default variable names
0 # number of non-default constraint names
